row=9;
column=9;
Board = [|-1, -1, 4, -1, 2, 3, -1, 4, -1|4, 6, 5, -1, -1, -1, 3, 6, -1|-1, -1, 5, 6, 4, -1, 1, 3, -1|3, -1, 6, -1, -1, 6, 3, -1, -1|-1, 7, -1, -1, 4, 4, 2, 2, 1|3, 5, 5, 5, 5, -1, 5, 4, 2|-1, -1, 4, 3, 3, -1, 5, 5, -1|2, 5, 6, 6, -1, 7, 7, 6, 3|-1, 4, 5, 4, 3, 4, -1, -1, 2|]